
Welcome to IBM(R) ILOG(R) CPLEX(R) Interactive Optimizer 22.1.1.0
  with Simplex, Mixed Integer & Barrier Optimizers
5725-A06 5725-A29 5724-Y48 5724-Y49 5724-Y54 5724-Y55 5655-Y21
Copyright IBM Corp. 1988, 2022.  All Rights Reserved.

Type 'help' for a list of available commands.
Type 'help' followed by a command name for more
information on commands.

CPLEX> Selected objective sense:  MINIMIZE
Selected objective  name:  00000000
Selected RHS        name:  RHS1
Selected bound      name:  BOUND
Problem 'ee.mps' read.
Read time = 0.03 sec. (3.17 ticks)
CPLEX> New value for time limit in seconds: 7200
CPLEX> New value for parallel optimization mode: -1
CPLEX> New value for default parallel thread count: 40
CPLEX> New value for mixed integer optimality gap tolerance: 1e-13
CPLEX> Version identifier: 22.1.1.0 | 2022-11-28 | 9160aff4d
CPXPARAM_Threads                                 40
CPXPARAM_Parallel                                -1
CPXPARAM_TimeLimit                               7200
CPXPARAM_MIP_Tolerances_MIPGap                   1e-13
Found incumbent of value 0.000000 after 0.00 sec. (0.31 ticks)
Tried aggregator 2 times.
MIP Presolve eliminated 183 rows and 2745 columns.
MIP Presolve modified 6090 coefficients.
Aggregator did 713 substitutions.
Reduced MIP has 3636 rows, 7840 columns, and 28954 nonzeros.
Reduced MIP has 7840 binaries, 0 generals, 0 SOSs, and 0 indicators.
Presolve time = 0.07 sec. (69.14 ticks)
Probing time = 0.03 sec. (5.33 ticks)
Tried aggregator 1 time.
Detecting symmetries...
Reduced MIP has 3636 rows, 7840 columns, and 28954 nonzeros.
Reduced MIP has 7840 binaries, 0 generals, 0 SOSs, and 0 indicators.
Presolve time = 0.03 sec. (22.10 ticks)
Probing time = 0.02 sec. (5.12 ticks)
Clique table members: 18788.
MIP emphasis: balance optimality and feasibility.
MIP search method: dynamic search.
Parallel mode: opportunistic, using up to 40 threads.
Root relaxation solution time = 0.12 sec. (98.77 ticks)

        Nodes                                         Cuts/
   Node  Left     Objective  IInf  Best Integer    Best Bound    ItCnt     Gap

*     0+    0                            0.0000  -1.54000e+13              --- 
*     0+    0                      -7.20000e+12  -1.54000e+13           113.89%
      0     0  -1.53900e+13   115  -7.20000e+12  -1.53900e+13     2075  113.75%
*     0+    0                      -1.53900e+13  -1.53900e+13             0.00%
      0     0  -1.53900e+13   200  -1.53900e+13     Cuts: 121     2429    0.00%
      0     0  -1.53900e+13   165  -1.53900e+13     Cuts: 130     2678    0.00%
      0     0  -1.53900e+13   215  -1.53900e+13      Cuts: 65     2757    0.00%
*     0+    0                      -1.53900e+13  -1.53900e+13             0.00%
*     0+    0                      -1.53900e+13  -1.53900e+13             0.00%
*     0+    0                      -1.53900e+13  -1.53900e+13             0.00%
*     0+    0                      -1.53900e+13  -1.53900e+13             0.00%
      0     0  -1.00000e+75     0  -1.53900e+13  -1.53900e+13     2757    0.00%
      0     2  -1.53900e+13   189  -1.53900e+13  -1.53900e+13     2757    0.00%
Elapsed time = 2.63 sec. (1029.49 ticks, tree = 0.02 MB, solutions = 13)
*     4+   22                      -1.53900e+13  -1.53900e+13             0.00%
    654    30  -1.53900e+13   125  -1.53900e+13  -1.53900e+13    21714    0.00%
   2091    89        cutoff        -1.53900e+13  -1.53900e+13    35564    0.00%
   3040   141        cutoff        -1.53900e+13  -1.53900e+13    61741    0.00%
   3738   436  -1.53900e+13   103  -1.53900e+13  -1.53900e+13   204756    0.00%
   4788   460  -1.53900e+13    52  -1.53900e+13  -1.53900e+13   188730    0.00%
   5936   483  -1.53900e+13   148  -1.53900e+13  -1.53900e+13   324257    0.00%
   7157   464  -1.53900e+13    90  -1.53900e+13  -1.53900e+13   274158    0.00%
   8454   481  -1.53900e+13    70  -1.53900e+13  -1.53900e+13   280275    0.00%
   9538   469  -1.53900e+13    89  -1.53900e+13  -1.53900e+13   337662    0.00%
  13447   556  -1.53900e+13   201  -1.53900e+13  -1.53900e+13   542640    0.00%
Elapsed time = 7.52 sec. (4132.13 ticks, tree = 1.24 MB, solutions = 16)
  14578   636  -1.53900e+13   239  -1.53900e+13  -1.53900e+13   637779    0.00%

Performing restart 1

Repeating presolve.
Tried aggregator 2 times.
MIP Presolve eliminated 29 rows and 29 columns.
MIP Presolve modified 1865 coefficients.
Aggregator did 9 substitutions.
Reduced MIP has 3522 rows, 7802 columns, and 28234 nonzeros.
Reduced MIP has 7802 binaries, 0 generals, 0 SOSs, and 0 indicators.
Presolve time = 0.04 sec. (39.81 ticks)
Tried aggregator 2 times.
MIP Presolve eliminated 9 rows and 38 columns.
MIP Presolve modified 28 coefficients.
Aggregator did 18 substitutions.
Reduced MIP has 3495 rows, 7740 columns, and 28008 nonzeros.
Reduced MIP has 7740 binaries, 0 generals, 0 SOSs, and 0 indicators.
Presolve time = 0.05 sec. (54.13 ticks)
Represolve time = 0.21 sec. (154.05 ticks)
  14580     0  -1.53900e+13   309  -1.53900e+13      Cuts: 18   870975    0.00%
  14580     0  -1.53900e+13   169  -1.53900e+13      Cuts: 22   871056    0.00%
  14580     0  -1.53900e+13   279  -1.53900e+13      Cuts: 14   871096    0.00%
  14580     0  -1.53900e+13   256  -1.53900e+13      Cuts: 10   871146    0.00%
  14580     0  -1.53900e+13   279  -1.53900e+13      Cuts: 13   871239    0.00%
  14580     0  -1.53900e+13   223  -1.53900e+13      Cuts: 10   871411    0.00%
  14580     0  -1.53900e+13   299  -1.53900e+13      Cuts: 19   871640    0.00%
  14580     0  -1.53900e+13   271  -1.53900e+13      Cuts: 29   871942    0.00%
  14580     0  -1.53900e+13   198  -1.53900e+13      Cuts: 24   872605    0.00%
  14580     0  -1.53900e+13   249  -1.53900e+13      Cuts: 48   872852    0.00%
  14580     0  -1.53900e+13   245  -1.53900e+13      Cuts: 42   873073    0.00%
  14580     0  -1.53900e+13   274  -1.53900e+13      Cuts: 27   873227    0.00%
  14580     0  -1.53900e+13   254  -1.53900e+13      Cuts: 29   873753    0.00%
  14580     0  -1.53900e+13   308  -1.53900e+13      Cuts: 54   873988    0.00%
  14580     0  -1.53900e+13   314  -1.53900e+13      Cuts: 50   874219    0.00%
  14580     6        cutoff        -1.53900e+13  -1.53900e+13   879857    0.00%
  14920    48  -1.53900e+13   185  -1.53900e+13  -1.53900e+13   920655    0.00%
  15278    63  -1.53900e+13   283  -1.53900e+13  -1.53900e+13   966084    0.00%
  15433    37  -1.53900e+13   253  -1.53900e+13  -1.53900e+13  1025058    0.00%

GUB cover cuts applied:  6
Clique cuts applied:  18
Cover cuts applied:  343
Flow cuts applied:  1
Mixed integer rounding cuts applied:  19
Zero-half cuts applied:  67
Lift and project cuts applied:  3
Gomory fractional cuts applied:  18

Root node processing (before b&c):
  Real time             =    1.45 sec. (1015.47 ticks)
Parallel b&c, 40 threads:
  Real time             =   16.94 sec. (10568.62 ticks)
  Sync time (average)   =    4.87 sec.
  Wait time (average)   =    0.17 sec.
                          ------------
Total (root+branch&cut) =   18.39 sec. (11584.09 ticks)

Solution pool: 16 solutions saved.

MIP - Integer optimal solution:  Objective = -1.5389998389e+13
Solution time =   18.49 sec.  Iterations = 1139570  Nodes = 15455
Deterministic time = 11584.12 ticks  (626.67 ticks/sec)

CPLEX> Solution 'p17' written to file 'ee.sol'.
CPLEX> 